<instance format="XCSP3" type="COP">
  <variables>
    <array id="x" size="[30]"> 0 1 </array>
  </variables>
  <constraints>
    <sum>
      <list> x[] </list>
      <coeffs> 15 22 24 11 10 8 24 2 14 19 22 12 2 9 21 24 12 19 15 20 17 22 7 13 2 20 13 14 19 13 </coeffs>
      <condition> (le,100) </condition>
    </sum>
  </constraints>
  <objectives>
    <maximize type="sum">
      <list> x[] </list>
      <coeffs> 27 31 67 53 51 7 4 16 16 32 53 43 11 31 5 52 85 48 6 34 99 29 49 20 19 27 61 73 43 79 </coeffs>
    </maximize>
  </objectives>
</instance>
